unsat
(obs-1-13 obs-2-3 obs-2-4 obs-2-13 obs-3-3 obs-3-13 obs-4-3 obs-5-6 obs-5-7 obs-5-8 obs-5-9 obs-5-10 obs-5-11 obs-5-12 obs-5-13 obs-7-3 obs-8-3 obs-8-4 obs-8-5 obs-8-6 obs-8-7 obs-8-8 obs-8-9 obs-9-9 obs-9-10 obs-9-11 obs-9-12 obs-9-13 obs-11-3 obs-11-4 obs-11-5 obs-11-6 obs-12-6 obs-13-7 obs-13-8 obs-14-3 obs-15-3 a2_15$1@ a3_1$1@ a7_8$0@ a7_9$2@ a7_10$0@ a9_1$1@ a9_1$3@ a9_4$0@ a16_4$2@ a16_6$2@)
(error "line 878350 column 10: model is not available")
